110 166 60 184 73 185 80 7 91 142 78 28 38 194 132 130 140 154 114 52 134 148 161 95 58 141 41 193 50 83 89 4 162 126 165 57 175 66 88 19 176 16 0 47 5 84 17 20 149 2 81 9 55 86 85 13 147 54 100 1 53 70 34 24 168 12 174 102 21 192 35 137 180 75 127 116 76 151 46 183 32 128 15 187 44 111 49 104 31 139 125 119 144 36 163 156 129 150 190 62 179 136 18 33 10 40 133 22 169 69 135 191 112 173 170 157 199 82 195 29 63 108 96 155 158 107 145 172 93 146 97 131 197 64 103 79 48 30 11 186 90 171 189 164 99 177 143 67 124 120 51 178 23 98 101 8 6 39 71 160 153 121 59 196 74 87 105 25 43 14 159 123 3 181 118 94 117 61 68 56 115 92 77 106 113 26 138 45 167 152 198 42 122 188 72 109 65 27 182 37